16,1,13,1,11,1,5,2,3,1,20,2,12,2,4,3,6,1,13,3,8,1,8,2,4,4,18,3,6,5,7,4,10,4,9,5,7,5,3,5,11,5;12,1,19,1,17,2,20,1,7,1,11,2,10,2,3,2,15,3,2,3,1,3,18,2,6,4,8,3,9,4,14,4,13,5,18,5,12,5;5,1,17,3,16,2,15,2,18,1,5,3,1,2,20,4,15,4,6,3,12,3,3,3,5,5,8,4,1,5,16,4,2,5,10,5,15,5;4,1,17,1,1,1,15,1,13,2,17,4,19,2,2,1,2,2,9,3,7,2,7,3,19,4,17,5,12,4,14,3,5,4,1,4,10,3,3,4,8,5,16,5;10,1,9,1,4,2,9,2,16,3,20,3,14,1,11,3,14,2,6,2,19,3,2,4,20,5,19,5,4,5,13,4,11,4,18,4,14,5;
